Nodes = {"at1.at", "be1.be", "ch1.ch", "cz1.cz", "de1.de", "es1.es", "fr1.fr", "gr1.gr", "hr1.hr", "hu1.hu", "ie1.ie", "il1.il", "it1.it", "lu1.lu", "nl1.nl", "ny1.ny", "pl1.pl", "pt1.pt", "se1.se", "si1.si", "sk1.sk", "uk1.uk"};
Arcs = {<"at1.at","be1.be",44,12>, <"at1.at","ch1.ch",44,0>, <"at1.at","cz1.cz",44,3>, <"at1.at","de1.de",44,0>, <"at1.at","es1.es",44,22>, <"at1.at","fr1.fr",44,14>, <"at1.at","gr1.gr",44,13>, <"at1.at","hr1.hr",44,2>, <"at1.at","hu1.hu",44,0>, <"at1.at","ie1.ie",44,23>, <"at1.at","il1.il",44,25>, <"at1.at","it1.it",44,8>, <"at1.at","lu1.lu",44,10>, <"at1.at","nl1.nl",44,12>, <"at1.at","ny1.ny",44,0>, <"at1.at","pl1.pl",44,4>, <"at1.at","pt1.pt",44,27>, <"at1.at","se1.se",44,11>, <"at1.at","si1.si",44,0>, <"at1.at","sk1.sk",44,1>, <"at1.at","uk1.uk",44,17>, <"be1.be","at1.at",44,12>, <"be1.be","ch1.ch",44,5>, <"be1.be","cz1.cz",44,10>, <"be1.be","de1.de",44,4>, <"be1.be","es1.es",44,13>, <"be1.be","fr1.fr",44,0>, <"be1.be","gr1.gr",44,23>, <"be1.be","hr1.hr",44,13>, <"be1.be","hu1.hu",44,15>, <"be1.be","ie1.ie",44,11>, <"be1.be","il1.il",44,36>, <"be1.be","it1.it",44,7>, <"be1.be","lu1.lu",44,0>, <"be1.be","nl1.nl",44,0>, <"be1.be","ny1.ny",44,79>, <"be1.be","pl1.pl",44,13>, <"be1.be","pt1.pt",44,18>, <"be1.be","se1.se",44,16>, <"be1.be","si1.si",44,11>, <"be1.be","sk1.sk",44,13>, <"be1.be","uk1.uk",44,5>, <"ch1.ch","at1.at",44,0>, <"ch1.ch","be1.be",44,5>, <"ch1.ch","cz1.cz",44,9>, <"ch1.ch","de1.de",44,5>, <"ch1.ch","es1.es",44,11>, <"ch1.ch","fr1.fr",44,0>, <"ch1.ch","gr1.gr",44,19>, <"ch1.ch","hr1.hr",44,10>, <"ch1.ch","hu1.hu",44,13>, <"ch1.ch","ie1.ie",44,14>, <"ch1.ch","il1.il",44,32>, <"ch1.ch","it1.it",44,0>, <"ch1.ch","lu1.lu",44,3>, <"ch1.ch","nl1.nl",44,6>, <"ch1.ch","ny1.ny",44,80>, <"ch1.ch","pl1.pl",44,12>, <"ch1.ch","pt1.pt",44,17>, <"ch1.ch","se1.se",44,18>, <"ch1.ch","si1.si",44,8>, <"ch1.ch","sk1.sk",44,11>, <"ch1.ch","uk1.uk",44,8>, <"cz1.cz","at1.at",44,3>, <"cz1.cz","be1.be",44,10>, <"cz1.cz","ch1.ch",44,9>, <"cz1.cz","de1.de",44,0>, <"cz1.cz","es1.es",44,21>, <"cz1.cz","fr1.fr",44,12>, <"cz1.cz","gr1.gr",44,15>, <"cz1.cz","hr1.hr",44,5>, <"cz1.cz","hu1.hu",44,5>, <"cz1.cz","ie1.ie",44,21>, <"cz1.cz","il1.il",44,27>, <"cz1.cz","it1.it",44,7>, <"cz1.cz","lu1.lu",44,8>, <"cz1.cz","nl1.nl",44,10>, <"cz1.cz","ny1.ny",44,89>, <"cz1.cz","pl1.pl",44,0>, <"cz1.cz","pt1.pt",44,26>, <"cz1.cz","se1.se",44,10>, <"cz1.cz","si1.si",44,4>, <"cz1.cz","sk1.sk",44,0>, <"cz1.cz","uk1.uk",44,15>, <"de1.de","at1.at",44,0>, <"de1.de","be1.be",44,4>, <"de1.de","ch1.ch",44,5>, <"de1.de","cz1.cz",44,0>, <"de1.de","es1.es",44,16>, <"de1.de","fr1.fr",44,0>, <"de1.de","gr1.gr",44,0>, <"de1.de","hr1.hr",44,8>, <"de1.de","hu1.hu",44,11>, <"de1.de","ie1.ie",44,0>, <"de1.de","il1.il",44,32>, <"de1.de","it1.it",44,0>, <"de1.de","lu1.lu",44,3>, <"de1.de","nl1.nl",44,0>, <"de1.de","ny1.ny",44,83>, <"de1.de","pl1.pl",44,9>, <"de1.de","pt1.pt",44,21>, <"de1.de","se1.se",44,0>, <"de1.de","si1.si",44,7>, <"de1.de","sk1.sk",44,9>, <"de1.de","uk1.uk",44,9>, <"es1.es","at1.at",44,22>, <"es1.es","be1.be",44,13>, <"es1.es","ch1.ch",44,11>, <"es1.es","cz1.cz",44,21>, <"es1.es","de1.de",44,16>, <"es1.es","fr1.fr",44,0>, <"es1.es","gr1.gr",44,27>, <"es1.es","hr1.hr",44,20>, <"es1.es","hu1.hu",44,24>, <"es1.es","ie1.ie",44,13>, <"es1.es","il1.il",44,39>, <"es1.es","it1.it",44,0>, <"es1.es","lu1.lu",44,13>, <"es1.es","nl1.nl",44,15>, <"es1.es","ny1.ny",44,70>, <"es1.es","pl1.pl",44,24>, <"es1.es","pt1.pt",44,0>, <"es1.es","se1.se",44,29>, <"es1.es","si1.si",44,19>, <"es1.es","sk1.sk",44,22>, <"es1.es","uk1.uk",44,12>, <"fr1.fr","at1.at",44,14>, <"fr1.fr","be1.be",44,0>, <"fr1.fr","ch1.ch",44,0>, <"fr1.fr","cz1.cz",44,12>, <"fr1.fr","de1.de",44,0>, <"fr1.fr","es1.es",44,0>, <"fr1.fr","gr1.gr",44,24>, <"fr1.fr","hr1.hr",44,14>, <"fr1.fr","hu1.hu",44,17>, <"fr1.fr","ie1.ie",44,10>, <"fr1.fr","il1.il",44,37>, <"fr1.fr","it1.it",44,8>, <"fr1.fr","lu1.lu",44,0>, <"fr1.fr","nl1.nl",44,4>, <"fr1.fr","ny1.ny",44,77>, <"fr1.fr","pl1.pl",44,15>, <"fr1.fr","pt1.pt",44,15>, <"fr1.fr","se1.se",44,19>, <"fr1.fr","si1.si",44,12>, <"fr1.fr","sk1.sk",44,15>, <"fr1.fr","uk1.uk",44,0>, <"gr1.gr","at1.at",44,13>, <"gr1.gr","be1.be",44,23>, <"gr1.gr","ch1.ch",44,19>, <"gr1.gr","cz1.cz",44,15>, <"gr1.gr","de1.de",44,0>, <"gr1.gr","es1.es",44,27>, <"gr1.gr","fr1.fr",44,24>, <"gr1.gr","hr1.hr",44,11>, <"gr1.gr","hu1.hu",44,11>, <"gr1.gr","ie1.ie",44,34>, <"gr1.gr","il1.il",44,13>, <"gr1.gr","it1.it",44,0>, <"gr1.gr","lu1.lu",44,21>, <"gr1.gr","nl1.nl",44,24>, <"gr1.gr","ny1.ny",44,98>, <"gr1.gr","pl1.pl",44,16>, <"gr1.gr","pt1.pt",44,33>, <"gr1.gr","se1.se",44,22>, <"gr1.gr","si1.si",44,12>, <"gr1.gr","sk1.sk",44,12>, <"gr1.gr","uk1.uk",44,27>, <"hr1.hr","at1.at",44,2>, <"hr1.hr","be1.be",44,13>, <"hr1.hr","ch1.ch",44,10>, <"hr1.hr","cz1.cz",44,5>, <"hr1.hr","de1.de",44,8>, <"hr1.hr","es1.es",44,20>, <"hr1.hr","fr1.fr",44,14>, <"hr1.hr","gr1.gr",44,11>, <"hr1.hr","hu1.hu",44,0>, <"hr1.hr","ie1.ie",44,23>, <"hr1.hr","il1.il",44,23>, <"hr1.hr","it1.it",44,7>, <"hr1.hr","lu1.lu",44,11>, <"hr1.hr","nl1.nl",44,13>, <"hr1.hr","ny1.ny",44,90>, <"hr1.hr","pl1.pl",44,7>, <"hr1.hr","pt1.pt",44,26>, <"hr1.hr","se1.se",44,14>, <"hr1.hr","si1.si",44,0>, <"hr1.hr","sk1.sk",44,3>, <"hr1.hr","uk1.uk",44,17>, <"hu1.hu","at1.at",44,0>, <"hu1.hu","be1.be",44,15>, <"hu1.hu","ch1.ch",44,13>, <"hu1.hu","cz1.cz",44,5>, <"hu1.hu","de1.de",44,11>, <"hu1.hu","es1.es",44,24>, <"hu1.hu","fr1.fr",44,17>, <"hu1.hu","gr1.gr",44,11>, <"hu1.hu","hr1.hr",44,0>, <"hu1.hu","ie1.ie",44,26>, <"hu1.hu","il1.il",44,22>, <"hu1.hu","it1.it",44,10>, <"hu1.hu","lu1.lu",44,13>, <"hu1.hu","nl1.nl",44,15>, <"hu1.hu","ny1.ny",44,93>, <"hu1.hu","pl1.pl",44,5>, <"hu1.hu","pt1.pt",44,30>, <"hu1.hu","se1.se",44,12>, <"hu1.hu","si1.si",44,5>, <"hu1.hu","sk1.sk",44,0>, <"hu1.hu","uk1.uk",44,20>, <"ie1.ie","at1.at",44,23>, <"ie1.ie","be1.be",44,11>, <"ie1.ie","ch1.ch",44,14>, <"ie1.ie","cz1.cz",44,21>, <"ie1.ie","de1.de",44,0>, <"ie1.ie","es1.es",44,13>, <"ie1.ie","fr1.fr",44,10>, <"ie1.ie","gr1.gr",44,34>, <"ie1.ie","hr1.hr",44,23>, <"ie1.ie","hu1.hu",44,26>, <"ie1.ie","il1.il",44,46>, <"ie1.ie","it1.it",44,17>, <"ie1.ie","lu1.lu",44,13>, <"ie1.ie","nl1.nl",44,11>, <"ie1.ie","ny1.ny",44,69>, <"ie1.ie","pl1.pl",44,23>, <"ie1.ie","pt1.pt",44,15>, <"ie1.ie","se1.se",44,25>, <"ie1.ie","si1.si",44,22>, <"ie1.ie","sk1.sk",44,24>, <"ie1.ie","uk1.uk",44,0>, <"il1.il","at1.at",44,25>, <"il1.il","be1.be",44,36>, <"il1.il","ch1.ch",44,32>, <"il1.il","cz1.cz",44,27>, <"il1.il","de1.de",44,32>, <"il1.il","es1.es",44,39>, <"il1.il","fr1.fr",44,37>, <"il1.il","gr1.gr",44,13>, <"il1.il","hr1.hr",44,23>, <"il1.il","hu1.hu",44,22>, <"il1.il","ie1.ie",44,46>, <"il1.il","it1.it",44,0>, <"il1.il","lu1.lu",44,34>, <"il1.il","nl1.nl",44,0>, <"il1.il","ny1.ny",44,109>, <"il1.il","pl1.pl",44,27>, <"il1.il","pt1.pt",44,44>, <"il1.il","se1.se",44,32>, <"il1.il","si1.si",44,25>, <"il1.il","sk1.sk",44,24>, <"il1.il","uk1.uk",44,40>, <"it1.it","at1.at",44,8>, <"it1.it","be1.be",44,7>, <"it1.it","ch1.ch",44,0>, <"it1.it","cz1.cz",44,7>, <"it1.it","de1.de",44,0>, <"it1.it","es1.es",44,0>, <"it1.it","fr1.fr",44,8>, <"it1.it","gr1.gr",44,0>, <"it1.it","hr1.hr",44,7>, <"it1.it","hu1.hu",44,10>, <"it1.it","ie1.ie",44,17>, <"it1.it","il1.il",44,0>, <"it1.it","lu1.lu",44,5>, <"it1.it","nl1.nl",44,8>, <"it1.it","ny1.ny",44,83>, <"it1.it","pl1.pl",44,10>, <"it1.it","pt1.pt",44,20>, <"it1.it","se1.se",44,16>, <"it1.it","si1.si",44,5>, <"it1.it","sk1.sk",44,8>, <"it1.it","uk1.uk",44,11>, <"lu1.lu","at1.at",44,10>, <"lu1.lu","be1.be",44,0>, <"lu1.lu","ch1.ch",44,3>, <"lu1.lu","cz1.cz",44,8>, <"lu1.lu","de1.de",44,3>, <"lu1.lu","es1.es",44,13>, <"lu1.lu","fr1.fr",44,0>, <"lu1.lu","gr1.gr",44,21>, <"lu1.lu","hr1.hr",44,11>, <"lu1.lu","hu1.hu",44,13>, <"lu1.lu","ie1.ie",44,13>, <"lu1.lu","il1.il",44,34>, <"lu1.lu","it1.it",44,5>, <"lu1.lu","nl1.nl",44,3>, <"lu1.lu","ny1.ny",44,81>, <"lu1.lu","pl1.pl",44,11>, <"lu1.lu","pt1.pt",44,19>, <"lu1.lu","se1.se",44,15>, <"lu1.lu","si1.si",44,9>, <"lu1.lu","sk1.sk",44,11>, <"lu1.lu","uk1.uk",44,7>, <"nl1.nl","at1.at",44,12>, <"nl1.nl","be1.be",44,0>, <"nl1.nl","ch1.ch",44,6>, <"nl1.nl","cz1.cz",44,10>, <"nl1.nl","de1.de",44,0>, <"nl1.nl","es1.es",44,15>, <"nl1.nl","fr1.fr",44,4>, <"nl1.nl","gr1.gr",44,24>, <"nl1.nl","hr1.hr",44,13>, <"nl1.nl","hu1.hu",44,15>, <"nl1.nl","ie1.ie",44,11>, <"nl1.nl","il1.il",44,0>, <"nl1.nl","it1.it",44,8>, <"nl1.nl","lu1.lu",44,3>, <"nl1.nl","ny1.ny",44,80>, <"nl1.nl","pl1.pl",44,12>, <"nl1.nl","pt1.pt",44,20>, <"nl1.nl","se1.se",44,15>, <"nl1.nl","si1.si",44,11>, <"nl1.nl","sk1.sk",44,13>, <"nl1.nl","uk1.uk",44,0>, <"ny1.ny","at1.at",44,0>, <"ny1.ny","be1.be",44,79>, <"ny1.ny","ch1.ch",44,80>, <"ny1.ny","cz1.cz",44,89>, <"ny1.ny","de1.de",44,83>, <"ny1.ny","es1.es",44,70>, <"ny1.ny","fr1.fr",44,77>, <"ny1.ny","gr1.gr",44,98>, <"ny1.ny","hr1.hr",44,90>, <"ny1.ny","hu1.hu",44,93>, <"ny1.ny","ie1.ie",44,69>, <"ny1.ny","il1.il",44,109>, <"ny1.ny","it1.it",44,83>, <"ny1.ny","lu1.lu",44,81>, <"ny1.ny","nl1.nl",44,80>, <"ny1.ny","pl1.pl",44,92>, <"ny1.ny","pt1.pt",44,65>, <"ny1.ny","se1.se",44,94>, <"ny1.ny","si1.si",44,89>, <"ny1.ny","sk1.sk",44,91>, <"ny1.ny","uk1.uk",44,0>, <"pl1.pl","at1.at",44,4>, <"pl1.pl","be1.be",44,13>, <"pl1.pl","ch1.ch",44,12>, <"pl1.pl","cz1.cz",44,0>, <"pl1.pl","de1.de",44,9>, <"pl1.pl","es1.es",44,24>, <"pl1.pl","fr1.fr",44,15>, <"pl1.pl","gr1.gr",44,16>, <"pl1.pl","hr1.hr",44,7>, <"pl1.pl","hu1.hu",44,5>, <"pl1.pl","ie1.ie",44,23>, <"pl1.pl","il1.il",44,27>, <"pl1.pl","it1.it",44,10>, <"pl1.pl","lu1.lu",44,11>, <"pl1.pl","nl1.nl",44,12>, <"pl1.pl","ny1.ny",44,92>, <"pl1.pl","pt1.pt",44,29>, <"pl1.pl","se1.se",44,0>, <"pl1.pl","si1.si",44,7>, <"pl1.pl","sk1.sk",44,4>, <"pl1.pl","uk1.uk",44,17>, <"pt1.pt","at1.at",44,27>, <"pt1.pt","be1.be",44,18>, <"pt1.pt","ch1.ch",44,17>, <"pt1.pt","cz1.cz",44,26>, <"pt1.pt","de1.de",44,21>, <"pt1.pt","es1.es",44,0>, <"pt1.pt","fr1.fr",44,15>, <"pt1.pt","gr1.gr",44,33>, <"pt1.pt","hr1.hr",44,26>, <"pt1.pt","hu1.hu",44,30>, <"pt1.pt","ie1.ie",44,15>, <"pt1.pt","il1.il",44,44>, <"pt1.pt","it1.it",44,20>, <"pt1.pt","lu1.lu",44,19>, <"pt1.pt","nl1.nl",44,20>, <"pt1.pt","ny1.ny",44,65>, <"pt1.pt","pl1.pl",44,29>, <"pt1.pt","se1.se",44,34>, <"pt1.pt","si1.si",44,25>, <"pt1.pt","sk1.sk",44,28>, <"pt1.pt","uk1.uk",44,0>, <"se1.se","at1.at",44,11>, <"se1.se","be1.be",44,16>, <"se1.se","ch1.ch",44,18>, <"se1.se","cz1.cz",44,10>, <"se1.se","de1.de",44,0>, <"se1.se","es1.es",44,29>, <"se1.se","fr1.fr",44,19>, <"se1.se","gr1.gr",44,22>, <"se1.se","hr1.hr",44,14>, <"se1.se","hu1.hu",44,12>, <"se1.se","ie1.ie",44,25>, <"se1.se","il1.il",44,32>, <"se1.se","it1.it",44,16>, <"se1.se","lu1.lu",44,15>, <"se1.se","nl1.nl",44,15>, <"se1.se","ny1.ny",44,94>, <"se1.se","pl1.pl",44,0>, <"se1.se","pt1.pt",44,34>, <"se1.se","si1.si",44,14>, <"se1.se","sk1.sk",44,11>, <"se1.se","uk1.uk",44,0>, <"si1.si","at1.at",44,0>, <"si1.si","be1.be",44,11>, <"si1.si","ch1.ch",44,8>, <"si1.si","cz1.cz",44,4>, <"si1.si","de1.de",44,7>, <"si1.si","es1.es",44,19>, <"si1.si","fr1.fr",44,12>, <"si1.si","gr1.gr",44,12>, <"si1.si","hr1.hr",44,0>, <"si1.si","hu1.hu",44,5>, <"si1.si","ie1.ie",44,22>, <"si1.si","il1.il",44,25>, <"si1.si","it1.it",44,5>, <"si1.si","lu1.lu",44,9>, <"si1.si","nl1.nl",44,11>, <"si1.si","ny1.ny",44,89>, <"si1.si","pl1.pl",44,7>, <"si1.si","pt1.pt",44,25>, <"si1.si","se1.se",44,14>, <"si1.si","sk1.sk",44,3>, <"si1.si","uk1.uk",44,16>, <"sk1.sk","at1.at",44,1>, <"sk1.sk","be1.be",44,13>, <"sk1.sk","ch1.ch",44,11>, <"sk1.sk","cz1.cz",44,0>, <"sk1.sk","de1.de",44,9>, <"sk1.sk","es1.es",44,22>, <"sk1.sk","fr1.fr",44,15>, <"sk1.sk","gr1.gr",44,12>, <"sk1.sk","hr1.hr",44,3>, <"sk1.sk","hu1.hu",44,0>, <"sk1.sk","ie1.ie",44,24>, <"sk1.sk","il1.il",44,24>, <"sk1.sk","it1.it",44,8>, <"sk1.sk","lu1.lu",44,11>, <"sk1.sk","nl1.nl",44,13>, <"sk1.sk","ny1.ny",44,91>, <"sk1.sk","pl1.pl",44,4>, <"sk1.sk","pt1.pt",44,28>, <"sk1.sk","se1.se",44,11>, <"sk1.sk","si1.si",44,3>, <"sk1.sk","uk1.uk",44,18>, <"uk1.uk","at1.at",44,17>, <"uk1.uk","be1.be",44,5>, <"uk1.uk","ch1.ch",44,8>, <"uk1.uk","cz1.cz",44,15>, <"uk1.uk","de1.de",44,9>, <"uk1.uk","es1.es",44,12>, <"uk1.uk","fr1.fr",44,0>, <"uk1.uk","gr1.gr",44,27>, <"uk1.uk","hr1.hr",44,17>, <"uk1.uk","hu1.hu",44,20>, <"uk1.uk","ie1.ie",44,0>, <"uk1.uk","il1.il",44,40>, <"uk1.uk","it1.it",44,11>, <"uk1.uk","lu1.lu",44,7>, <"uk1.uk","nl1.nl",44,0>, <"uk1.uk","ny1.ny",44,0>, <"uk1.uk","pl1.pl",44,17>, <"uk1.uk","pt1.pt",44,0>, <"uk1.uk","se1.se",44,0>, <"uk1.uk","si1.si",44,16>, <"uk1.uk","sk1.sk",44,18>};
Demands = {<"at1.at","be1.be",2,0>, <"at1.at","ch1.ch",4,0>, <"at1.at","cz1.cz",6,0>, <"at1.at","de1.de",8,0>, <"at1.at","es1.es",10,0>, <"at1.at","fr1.fr",12,0>, <"at1.at","gr1.gr",14,0>, <"at1.at","hr1.hr",16,0>, <"at1.at","hu1.hu",18,0>, <"at1.at","ie1.ie",20,0>, <"at1.at","il1.il",22,0>, <"at1.at","it1.it",24,0>, <"at1.at","lu1.lu",26,0>, <"at1.at","nl1.nl",28,0>, <"at1.at","ny1.ny",30,0>, <"at1.at","pl1.pl",32,0>, <"at1.at","pt1.pt",34,0>, <"at1.at","se1.se",36,0>, <"at1.at","si1.si",38,0>, <"at1.at","sk1.sk",40,0>, <"at1.at","uk1.uk",42,0>, <"be1.be","at1.at",2,0>, <"be1.be","ch1.ch",2,0>, <"be1.be","cz1.cz",4,0>, <"be1.be","de1.de",6,0>, <"be1.be","es1.es",8,0>, <"be1.be","fr1.fr",10,0>, <"be1.be","gr1.gr",12,0>, <"be1.be","hr1.hr",14,0>, <"be1.be","hu1.hu",16,0>, <"be1.be","ie1.ie",18,0>, <"be1.be","il1.il",20,0>, <"be1.be","it1.it",22,0>, <"be1.be","lu1.lu",24,0>, <"be1.be","nl1.nl",26,0>, <"be1.be","ny1.ny",28,0>, <"be1.be","pl1.pl",30,0>, <"be1.be","pt1.pt",32,0>, <"be1.be","se1.se",34,0>, <"be1.be","si1.si",36,0>, <"be1.be","sk1.sk",38,0>, <"be1.be","uk1.uk",40,0>, <"ch1.ch","at1.at",4,0>, <"ch1.ch","be1.be",2,0>, <"ch1.ch","cz1.cz",2,0>, <"ch1.ch","de1.de",4,0>, <"ch1.ch","es1.es",6,0>, <"ch1.ch","fr1.fr",8,0>, <"ch1.ch","gr1.gr",10,0>, <"ch1.ch","hr1.hr",12,0>, <"ch1.ch","hu1.hu",14,0>, <"ch1.ch","ie1.ie",16,0>, <"ch1.ch","il1.il",18,0>, <"ch1.ch","it1.it",20,0>, <"ch1.ch","lu1.lu",22,0>, <"ch1.ch","nl1.nl",24,0>, <"ch1.ch","ny1.ny",26,0>, <"ch1.ch","pl1.pl",28,0>, <"ch1.ch","pt1.pt",30,0>, <"ch1.ch","se1.se",32,0>, <"ch1.ch","si1.si",34,0>, <"ch1.ch","sk1.sk",36,0>, <"ch1.ch","uk1.uk",38,0>, <"cz1.cz","at1.at",6,0>, <"cz1.cz","be1.be",4,0>, <"cz1.cz","ch1.ch",2,0>, <"cz1.cz","de1.de",2,0>, <"cz1.cz","es1.es",4,0>, <"cz1.cz","fr1.fr",6,0>, <"cz1.cz","gr1.gr",8,0>, <"cz1.cz","hr1.hr",10,0>, <"cz1.cz","hu1.hu",12,0>, <"cz1.cz","ie1.ie",14,0>, <"cz1.cz","il1.il",16,0>, <"cz1.cz","it1.it",18,0>, <"cz1.cz","lu1.lu",20,0>, <"cz1.cz","nl1.nl",22,0>, <"cz1.cz","ny1.ny",24,0>, <"cz1.cz","pl1.pl",26,0>, <"cz1.cz","pt1.pt",28,0>, <"cz1.cz","se1.se",30,0>, <"cz1.cz","si1.si",32,0>, <"cz1.cz","sk1.sk",34,0>, <"cz1.cz","uk1.uk",36,0>, <"de1.de","at1.at",8,0>, <"de1.de","be1.be",6,0>, <"de1.de","ch1.ch",4,0>, <"de1.de","cz1.cz",2,0>, <"de1.de","es1.es",2,0>, <"de1.de","fr1.fr",4,0>, <"de1.de","gr1.gr",6,0>, <"de1.de","hr1.hr",8,0>, <"de1.de","hu1.hu",10,0>, <"de1.de","ie1.ie",12,0>, <"de1.de","il1.il",14,0>, <"de1.de","it1.it",16,0>, <"de1.de","lu1.lu",18,0>, <"de1.de","nl1.nl",20,0>, <"de1.de","ny1.ny",22,0>, <"de1.de","pl1.pl",24,0>, <"de1.de","pt1.pt",26,0>, <"de1.de","se1.se",28,0>, <"de1.de","si1.si",30,0>, <"de1.de","sk1.sk",32,0>, <"de1.de","uk1.uk",34,0>, <"es1.es","at1.at",10,0>, <"es1.es","be1.be",8,0>, <"es1.es","ch1.ch",6,0>, <"es1.es","cz1.cz",4,0>, <"es1.es","de1.de",2,0>, <"es1.es","fr1.fr",2,0>, <"es1.es","gr1.gr",4,0>, <"es1.es","hr1.hr",6,0>, <"es1.es","hu1.hu",8,0>, <"es1.es","ie1.ie",10,0>, <"es1.es","il1.il",12,0>, <"es1.es","it1.it",14,0>, <"es1.es","lu1.lu",16,0>, <"es1.es","nl1.nl",18,0>, <"es1.es","ny1.ny",20,0>, <"es1.es","pl1.pl",22,0>, <"es1.es","pt1.pt",24,0>, <"es1.es","se1.se",26,0>, <"es1.es","si1.si",28,0>, <"es1.es","sk1.sk",30,0>, <"es1.es","uk1.uk",32,0>, <"fr1.fr","at1.at",12,0>, <"fr1.fr","be1.be",10,0>, <"fr1.fr","ch1.ch",8,0>, <"fr1.fr","cz1.cz",6,0>, <"fr1.fr","de1.de",4,0>, <"fr1.fr","es1.es",2,0>, <"fr1.fr","gr1.gr",2,0>, <"fr1.fr","hr1.hr",4,0>, <"fr1.fr","hu1.hu",6,0>, <"fr1.fr","ie1.ie",8,0>, <"fr1.fr","il1.il",10,0>, <"fr1.fr","it1.it",12,0>, <"fr1.fr","lu1.lu",14,0>, <"fr1.fr","nl1.nl",16,0>, <"fr1.fr","ny1.ny",18,0>, <"fr1.fr","pl1.pl",20,0>, <"fr1.fr","pt1.pt",22,0>, <"fr1.fr","se1.se",24,0>, <"fr1.fr","si1.si",26,0>, <"fr1.fr","sk1.sk",28,0>, <"fr1.fr","uk1.uk",30,0>, <"gr1.gr","at1.at",14,0>, <"gr1.gr","be1.be",12,0>, <"gr1.gr","ch1.ch",10,0>, <"gr1.gr","cz1.cz",8,0>, <"gr1.gr","de1.de",6,0>, <"gr1.gr","es1.es",4,0>, <"gr1.gr","fr1.fr",2,0>, <"gr1.gr","hr1.hr",2,0>, <"gr1.gr","hu1.hu",4,0>, <"gr1.gr","ie1.ie",6,0>, <"gr1.gr","il1.il",8,0>, <"gr1.gr","it1.it",10,0>, <"gr1.gr","lu1.lu",12,0>, <"gr1.gr","nl1.nl",14,0>, <"gr1.gr","ny1.ny",16,0>, <"gr1.gr","pl1.pl",18,0>, <"gr1.gr","pt1.pt",20,0>, <"gr1.gr","se1.se",22,0>, <"gr1.gr","si1.si",24,0>, <"gr1.gr","sk1.sk",26,0>, <"gr1.gr","uk1.uk",28,0>, <"hr1.hr","at1.at",16,0>, <"hr1.hr","be1.be",14,0>, <"hr1.hr","ch1.ch",12,0>, <"hr1.hr","cz1.cz",10,0>, <"hr1.hr","de1.de",8,0>, <"hr1.hr","es1.es",6,0>, <"hr1.hr","fr1.fr",4,0>, <"hr1.hr","gr1.gr",2,0>, <"hr1.hr","hu1.hu",2,0>, <"hr1.hr","ie1.ie",4,0>, <"hr1.hr","il1.il",6,0>, <"hr1.hr","it1.it",8,0>, <"hr1.hr","lu1.lu",10,0>, <"hr1.hr","nl1.nl",12,0>, <"hr1.hr","ny1.ny",14,0>, <"hr1.hr","pl1.pl",16,0>, <"hr1.hr","pt1.pt",18,0>, <"hr1.hr","se1.se",20,0>, <"hr1.hr","si1.si",22,0>, <"hr1.hr","sk1.sk",24,0>, <"hr1.hr","uk1.uk",26,0>, <"hu1.hu","at1.at",18,0>, <"hu1.hu","be1.be",16,0>, <"hu1.hu","ch1.ch",14,0>, <"hu1.hu","cz1.cz",12,0>, <"hu1.hu","de1.de",10,0>, <"hu1.hu","es1.es",8,0>, <"hu1.hu","fr1.fr",6,0>, <"hu1.hu","gr1.gr",4,0>, <"hu1.hu","hr1.hr",2,0>, <"hu1.hu","ie1.ie",2,0>, <"hu1.hu","il1.il",4,0>, <"hu1.hu","it1.it",6,0>, <"hu1.hu","lu1.lu",8,0>, <"hu1.hu","nl1.nl",10,0>, <"hu1.hu","ny1.ny",12,0>, <"hu1.hu","pl1.pl",14,0>, <"hu1.hu","pt1.pt",16,0>, <"hu1.hu","se1.se",18,0>, <"hu1.hu","si1.si",20,0>, <"hu1.hu","sk1.sk",22,0>, <"hu1.hu","uk1.uk",24,0>, <"ie1.ie","at1.at",20,0>, <"ie1.ie","be1.be",18,0>, <"ie1.ie","ch1.ch",16,0>, <"ie1.ie","cz1.cz",14,0>, <"ie1.ie","de1.de",12,0>, <"ie1.ie","es1.es",10,0>, <"ie1.ie","fr1.fr",8,0>, <"ie1.ie","gr1.gr",6,0>, <"ie1.ie","hr1.hr",4,0>, <"ie1.ie","hu1.hu",2,0>, <"ie1.ie","il1.il",2,0>, <"ie1.ie","it1.it",4,0>, <"ie1.ie","lu1.lu",6,0>, <"ie1.ie","nl1.nl",8,0>, <"ie1.ie","ny1.ny",10,0>, <"ie1.ie","pl1.pl",12,0>, <"ie1.ie","pt1.pt",14,0>, <"ie1.ie","se1.se",16,0>, <"ie1.ie","si1.si",18,0>, <"ie1.ie","sk1.sk",20,0>, <"ie1.ie","uk1.uk",22,0>, <"il1.il","at1.at",22,0>, <"il1.il","be1.be",20,0>, <"il1.il","ch1.ch",18,0>, <"il1.il","cz1.cz",16,0>, <"il1.il","de1.de",14,0>, <"il1.il","es1.es",12,0>, <"il1.il","fr1.fr",10,0>, <"il1.il","gr1.gr",8,0>, <"il1.il","hr1.hr",6,0>, <"il1.il","hu1.hu",4,0>, <"il1.il","ie1.ie",2,0>, <"il1.il","it1.it",2,0>, <"il1.il","lu1.lu",4,0>, <"il1.il","nl1.nl",6,0>, <"il1.il","ny1.ny",8,0>, <"il1.il","pl1.pl",10,0>, <"il1.il","pt1.pt",12,0>, <"il1.il","se1.se",14,0>, <"il1.il","si1.si",16,0>, <"il1.il","sk1.sk",18,0>, <"il1.il","uk1.uk",20,0>, <"it1.it","at1.at",24,0>, <"it1.it","be1.be",22,0>, <"it1.it","ch1.ch",20,0>, <"it1.it","cz1.cz",18,0>, <"it1.it","de1.de",16,0>, <"it1.it","es1.es",14,0>, <"it1.it","fr1.fr",12,0>, <"it1.it","gr1.gr",10,0>, <"it1.it","hr1.hr",8,0>, <"it1.it","hu1.hu",6,0>, <"it1.it","ie1.ie",4,0>, <"it1.it","il1.il",2,0>, <"it1.it","lu1.lu",2,0>, <"it1.it","nl1.nl",4,0>, <"it1.it","ny1.ny",6,0>, <"it1.it","pl1.pl",8,0>, <"it1.it","pt1.pt",10,0>, <"it1.it","se1.se",12,0>, <"it1.it","si1.si",14,0>, <"it1.it","sk1.sk",16,0>, <"it1.it","uk1.uk",18,0>, <"lu1.lu","at1.at",26,0>, <"lu1.lu","be1.be",24,0>, <"lu1.lu","ch1.ch",22,0>, <"lu1.lu","cz1.cz",20,0>, <"lu1.lu","de1.de",18,0>, <"lu1.lu","es1.es",16,0>, <"lu1.lu","fr1.fr",14,0>, <"lu1.lu","gr1.gr",12,0>, <"lu1.lu","hr1.hr",10,0>, <"lu1.lu","hu1.hu",8,0>, <"lu1.lu","ie1.ie",6,0>, <"lu1.lu","il1.il",4,0>, <"lu1.lu","it1.it",2,0>, <"lu1.lu","nl1.nl",2,0>, <"lu1.lu","ny1.ny",4,0>, <"lu1.lu","pl1.pl",6,0>, <"lu1.lu","pt1.pt",8,0>, <"lu1.lu","se1.se",10,0>, <"lu1.lu","si1.si",12,0>, <"lu1.lu","sk1.sk",14,0>, <"lu1.lu","uk1.uk",16,0>, <"nl1.nl","at1.at",28,0>, <"nl1.nl","be1.be",26,0>, <"nl1.nl","ch1.ch",24,0>, <"nl1.nl","cz1.cz",22,0>, <"nl1.nl","de1.de",20,0>, <"nl1.nl","es1.es",18,0>, <"nl1.nl","fr1.fr",16,0>, <"nl1.nl","gr1.gr",14,0>, <"nl1.nl","hr1.hr",12,0>, <"nl1.nl","hu1.hu",10,0>, <"nl1.nl","ie1.ie",8,0>, <"nl1.nl","il1.il",6,0>, <"nl1.nl","it1.it",4,0>, <"nl1.nl","lu1.lu",2,0>, <"nl1.nl","ny1.ny",2,0>, <"nl1.nl","pl1.pl",4,0>, <"nl1.nl","pt1.pt",6,0>, <"nl1.nl","se1.se",8,0>, <"nl1.nl","si1.si",10,0>, <"nl1.nl","sk1.sk",12,0>, <"nl1.nl","uk1.uk",14,0>, <"ny1.ny","at1.at",30,0>, <"ny1.ny","be1.be",28,0>, <"ny1.ny","ch1.ch",26,0>, <"ny1.ny","cz1.cz",24,0>, <"ny1.ny","de1.de",22,0>, <"ny1.ny","es1.es",20,0>, <"ny1.ny","fr1.fr",18,0>, <"ny1.ny","gr1.gr",16,0>, <"ny1.ny","hr1.hr",14,0>, <"ny1.ny","hu1.hu",12,0>, <"ny1.ny","ie1.ie",10,0>, <"ny1.ny","il1.il",8,0>, <"ny1.ny","it1.it",6,0>, <"ny1.ny","lu1.lu",4,0>, <"ny1.ny","nl1.nl",2,0>, <"ny1.ny","pl1.pl",2,0>, <"ny1.ny","pt1.pt",4,0>, <"ny1.ny","se1.se",6,0>, <"ny1.ny","si1.si",8,0>, <"ny1.ny","sk1.sk",10,0>, <"ny1.ny","uk1.uk",12,0>, <"pl1.pl","at1.at",32,0>, <"pl1.pl","be1.be",30,0>, <"pl1.pl","ch1.ch",28,0>, <"pl1.pl","cz1.cz",26,0>, <"pl1.pl","de1.de",24,0>, <"pl1.pl","es1.es",22,0>, <"pl1.pl","fr1.fr",20,0>, <"pl1.pl","gr1.gr",18,0>, <"pl1.pl","hr1.hr",16,0>, <"pl1.pl","hu1.hu",14,0>, <"pl1.pl","ie1.ie",12,0>, <"pl1.pl","il1.il",10,0>, <"pl1.pl","it1.it",8,0>, <"pl1.pl","lu1.lu",6,0>, <"pl1.pl","nl1.nl",4,0>, <"pl1.pl","ny1.ny",2,0>, <"pl1.pl","pt1.pt",2,0>, <"pl1.pl","se1.se",4,0>, <"pl1.pl","si1.si",6,0>, <"pl1.pl","sk1.sk",8,0>, <"pl1.pl","uk1.uk",10,0>, <"pt1.pt","at1.at",34,0>, <"pt1.pt","be1.be",32,0>, <"pt1.pt","ch1.ch",30,0>, <"pt1.pt","cz1.cz",28,0>, <"pt1.pt","de1.de",26,0>, <"pt1.pt","es1.es",24,0>, <"pt1.pt","fr1.fr",22,0>, <"pt1.pt","gr1.gr",20,0>, <"pt1.pt","hr1.hr",18,0>, <"pt1.pt","hu1.hu",16,0>, <"pt1.pt","ie1.ie",14,0>, <"pt1.pt","il1.il",12,0>, <"pt1.pt","it1.it",10,0>, <"pt1.pt","lu1.lu",8,0>, <"pt1.pt","nl1.nl",6,0>, <"pt1.pt","ny1.ny",4,0>, <"pt1.pt","pl1.pl",2,0>, <"pt1.pt","se1.se",2,0>, <"pt1.pt","si1.si",4,0>, <"pt1.pt","sk1.sk",6,0>, <"pt1.pt","uk1.uk",8,0>, <"se1.se","at1.at",36,0>, <"se1.se","be1.be",34,0>, <"se1.se","ch1.ch",32,0>, <"se1.se","cz1.cz",30,0>, <"se1.se","de1.de",28,0>, <"se1.se","es1.es",26,0>, <"se1.se","fr1.fr",24,0>, <"se1.se","gr1.gr",22,0>, <"se1.se","hr1.hr",20,0>, <"se1.se","hu1.hu",18,0>, <"se1.se","ie1.ie",16,0>, <"se1.se","il1.il",14,0>, <"se1.se","it1.it",12,0>, <"se1.se","lu1.lu",10,0>, <"se1.se","nl1.nl",8,0>, <"se1.se","ny1.ny",6,0>, <"se1.se","pl1.pl",4,0>, <"se1.se","pt1.pt",2,0>, <"se1.se","si1.si",2,0>, <"se1.se","sk1.sk",4,0>, <"se1.se","uk1.uk",6,0>, <"si1.si","at1.at",38,0>, <"si1.si","be1.be",36,0>, <"si1.si","ch1.ch",34,0>, <"si1.si","cz1.cz",32,0>, <"si1.si","de1.de",30,0>, <"si1.si","es1.es",28,0>, <"si1.si","fr1.fr",26,0>, <"si1.si","gr1.gr",24,0>, <"si1.si","hr1.hr",22,0>, <"si1.si","hu1.hu",20,0>, <"si1.si","ie1.ie",18,0>, <"si1.si","il1.il",16,0>, <"si1.si","it1.it",14,0>, <"si1.si","lu1.lu",12,0>, <"si1.si","nl1.nl",10,0>, <"si1.si","ny1.ny",8,0>, <"si1.si","pl1.pl",6,0>, <"si1.si","pt1.pt",4,0>, <"si1.si","se1.se",2,0>, <"si1.si","sk1.sk",2,0>, <"si1.si","uk1.uk",4,0>, <"sk1.sk","at1.at",40,0>, <"sk1.sk","be1.be",38,0>, <"sk1.sk","ch1.ch",36,0>, <"sk1.sk","cz1.cz",34,0>, <"sk1.sk","de1.de",32,0>, <"sk1.sk","es1.es",30,0>, <"sk1.sk","fr1.fr",28,0>, <"sk1.sk","gr1.gr",26,0>, <"sk1.sk","hr1.hr",24,0>, <"sk1.sk","hu1.hu",22,0>, <"sk1.sk","ie1.ie",20,0>, <"sk1.sk","il1.il",18,0>, <"sk1.sk","it1.it",16,0>, <"sk1.sk","lu1.lu",14,0>, <"sk1.sk","nl1.nl",12,0>, <"sk1.sk","ny1.ny",10,0>, <"sk1.sk","pl1.pl",8,0>, <"sk1.sk","pt1.pt",6,0>, <"sk1.sk","se1.se",4,0>, <"sk1.sk","si1.si",2,0>, <"sk1.sk","uk1.uk",2,0>, <"uk1.uk","at1.at",42,0>, <"uk1.uk","be1.be",40,0>, <"uk1.uk","ch1.ch",38,0>, <"uk1.uk","cz1.cz",36,0>, <"uk1.uk","de1.de",34,0>, <"uk1.uk","es1.es",32,0>, <"uk1.uk","fr1.fr",30,0>, <"uk1.uk","gr1.gr",28,0>, <"uk1.uk","hr1.hr",26,0>, <"uk1.uk","hu1.hu",24,0>, <"uk1.uk","ie1.ie",22,0>, <"uk1.uk","il1.il",20,0>, <"uk1.uk","it1.it",18,0>, <"uk1.uk","lu1.lu",16,0>, <"uk1.uk","nl1.nl",14,0>, <"uk1.uk","ny1.ny",12,0>, <"uk1.uk","pl1.pl",10,0>, <"uk1.uk","pt1.pt",8,0>, <"uk1.uk","se1.se",6,0>, <"uk1.uk","si1.si",4,0>, <"uk1.uk","sk1.sk",2,0>};
